

























































































59 37 44 
20 47 56 
1 38 8 
42 31 60 
4 23 27 
57 54 33 
22 14 25 
24 51 29 
46 55 12 
49 19 76 
34 15 16 
7 63 68 
50 70 71 
67 39 62 
64 28 40 48 
72 61 0 
73 13 45 
17 58 5 53 
43 26 35 9 
21 11 41 
32 74 2 
3 18 10 
66 69 6 
65 36 75 
30 52 
